generated by phonopy
   1.0
    -7.1043164350870001   -7.1127165375398480   -0.0028244667978798
    -7.1035521049227084    7.1119238182490481   -0.0011769644967904
    -0.0051654263692121   -0.0020280758014484  -17.7427826749665876
Mn Cr Fe Co Ni
  32   32   32   32   32
Direct
  0.7513162063808645  0.7523952345584995  0.9992775821212383
  0.4987850078855162  0.0006975187656823  0.0001415513391219
  0.4940211072190486  0.0006124029796329  0.3988670985596707
  0.2473482582921708  0.7498826815034177  0.5988523825089892
  0.2477682555695627  0.7435747981895461  0.8037724198017493
  0.7458362617859711  0.2520857271089160  0.7987724201757369
  0.6260843133870249  0.3848865622986217  0.2993632967647660
  0.8733770605920806  0.6295270761212970  0.2998048124570724
  0.8680512665186737  0.1254125428125240  0.5042520368803032
  0.1311811652471435  0.3742195738387266  0.7038457963714685
  0.1233639981383363  0.3736400488595609  0.8967336900960187
  0.1218628501223533  0.1277261433698895  0.1022715949748955
  0.6249217879458635  0.1282549578298885  0.1038066878733036
  0.3754697186976377  0.8756785838409819  0.3013014733965594
  0.3731441233743060  0.3705809363302393  0.2984094273663606
  0.6270151199977305  0.1263324640900938  0.3005699523728956
  0.8727374072637228  0.3756725168314117  0.2987014719793653
  0.3724366088584181  0.8760971829877788  0.4981157452089019
  0.6217488097169679  0.6261685051761299  0.4978053820552233
  0.1197173842606636  0.1248308145936879  0.6985152171725583
  0.6240943738571297  0.1300050945974348  0.9007001548595621
  0.0082601117109934  0.7505548680632962  0.9959902461815505
  0.2500245203333222  0.0006081669039980  0.1987491460042808
  0.4968971662429882  0.2490289998022955  0.2014492780224936
  0.0014141330270982  0.2479850551374208  0.2030768503572667
  0.2449770605228438  0.0011812375559279  0.4016532270851110
  0.2544571802304200  0.5088236347095344  0.5979695859491562
  0.4976231604180699  0.7443656961698001  0.6021908707984454
  0.7536376009527335  0.5015053331237517  0.6014275102372758
  0.9996074518130332  0.2545616344094974  0.6032991966653344
  0.2465122799389025  0.0006251265895454  0.8004795732896883
  0.7488068069144356  0.5069354937405965  0.7989002182348016
  0.9992721720979961  0.0038479015628719  0.0010119926692927
  0.0037056526144376  0.9983989895936817  0.1943276724279197
  0.4950118135889213  0.4959794581246170  0.1993483689236550
  0.5029776478781054  0.9923629814708579  0.2013176493531244
  0.4965099897041584  0.4982205244265512  0.4006852901164343
  0.0089199049197485  0.4939187154767104  0.6012370015506165
  0.7485464889876787  0.2570666384975850  0.6014752886814121
  0.9939998869968798  0.4989651103136672  0.7929000446391721
  0.5055667000714962  0.5045413953267778  0.7964234804207051
  0.7464195919069555  0.7498554190874093  0.8024714804923075
  0.1265851340032550  0.3821310641106176  0.1029495673730250
  0.6289759673692461  0.3765902921912097  0.0979014077420515
  0.1205500350448920  0.8868949280249561  0.3023998583638258
  0.8796712186256566  0.1275469450410666  0.2985109880925387
  0.6253424023397520  0.3722277881395771  0.4980040327904873
  0.8725123013673065  0.6243039327813115  0.4972877614391119
  0.8700917894551602  0.6307669062485090  0.6963641568880369
  0.1292997374501094  0.8750515660418606  0.8959211885686349
  0.6283214735427807  0.6319984216769344  0.1002402090858011
  0.8640664620109231  0.8643105281773097  0.0987256095607289
  0.1238427290293689  0.6220065197274369  0.2994731027222495
  0.1347603649375766  0.1296018559210649  0.3000905053667363
  0.6309696547355119  0.6283621531587048  0.3013611937237933
  0.1231814358652356  0.1214326527863673  0.4978207795796735
  0.1328002680012452  0.6308807905516023  0.7065557783189470
  0.8742430777921675  0.3690819827389956  0.7060097440026316
  0.1282273528676404  0.6162586489532090  0.8980291225518783
  0.3734495345995163  0.3705572393289453  0.9043357263296595
  0.9970863282019921  0.2543924371272026  0.9979309066566896
  0.7517091432638263  0.9956209492764534  0.4035241846616544
  0.0009309369008898  0.7485525937287855  0.6025469866420943
  0.7481528236302307  0.0001202923493338  0.5991660693363653
  0.2532808797099054  0.2448778833983246  0.0014189802566425
  0.7504881943432694  0.2535550635820434  0.9976753899745302
  0.2462300557324304  0.7505099799390614  0.1992138766326003
  0.9925326831716785  0.0028148551918365  0.4016843912375000
  0.2545582698090255  0.2474989838755688  0.4030241611183011
  0.2531228612692719  0.2486237850443035  0.5979485194661840
  0.5025090462989520  0.0035961314328319  0.7998185096167097
  0.3753725967583214  0.6214198610119962  0.1006566094969412
  0.3724301724641895  0.1252927636791154  0.1030019222996029
  0.8764962232342919  0.6186163499023308  0.1028120479049696
  0.8784896980482487  0.1213211489095306  0.0995390897742914
  0.3717387186328203  0.1225521476233011  0.2987445863711696
  0.6295149751523466  0.8725985305845898  0.3008199372287249
  0.1221174737035330  0.8719440801589508  0.7008604988554772
  0.8728731942799005  0.1230662078277423  0.6996982630302637
  0.6194248548524312  0.3791244820616932  0.9003481924760662
  0.8790749867748825  0.1256785918648045  0.8999591891252831
  0.8780508555448026  0.3705761313852041  0.1013244229556646
  0.8775014968174739  0.8807815639743815  0.2983253540466891
  0.3701486258653247  0.8747230668617874  0.6994219400244523
  0.8740110340608682  0.8773668944813251  0.7015439094608370
  0.6233798531797720  0.6222389259131195  0.8999462762190613
  0.2501509364376431  0.5015135045896587  0.0016264444071057
  0.4954376563664044  0.7433330606007749  0.9987218802926825
  0.2453012779443599  0.9936410784405239  0.9986498015798625
  0.2452557262085727  0.4979466436589480  0.1990615976910578
  0.2469746727516876  0.5001066163171416  0.4015055486882866
  0.7525028276712098  0.4995931526242717  0.4038386557652519
  0.0029189049802562  0.7533111084453495  0.4014026428992961
  0.0031744082332667  0.2504671929902843  0.4006054240874555
  0.4996881956307559  0.7470648596894188  0.7993923298975467
  0.9961167765556090  0.7523775416783065  0.8014359981498408
  0.2522602922333206  0.7473516879124847  0.9980506884567967
  0.5028759041314681  0.4973983465563670  0.0027943714202346
  0.9961758079117392  0.4972945231743849  0.2017482622832087
  0.2490416218656089  0.2491462998084060  0.1980774393851941
  0.7489988488918503  0.7505176516924444  0.1992784853403602
  0.7510213576622036  0.7527492317572850  0.4019508410204090
  0.5046023094131450  0.4958959753167388  0.5980445207063889
  0.6213180820523075  0.8755460282351052  0.1005240162492774
  0.1247496212125372  0.3752346444247971  0.2996462427385152
  0.3744079808288004  0.6251040145738017  0.4981868162998745
  0.1255074473696767  0.8746435704796683  0.4981859150001017
  0.3775968067567132  0.1284020371745288  0.4998644840094079
  0.3757580172797926  0.6237925467681613  0.6994853391575954
  0.3759437626205889  0.1262884913921817  0.6984941137402060
  0.6253139185467144  0.3734160415865156  0.6999748085053903
  0.3777740501048818  0.6226723551797400  0.9002632431313616
  0.3787395873343590  0.1253949576217693  0.9009293671193127
  0.8762222732927603  0.6237670488027621  0.8986202549229767
  0.1247620611497843  0.6241442352041557  0.1008519550175409
  0.3787852436064742  0.3706818389953486  0.0999299245051761
  0.1237135105640768  0.6246864655180492  0.4997887399098557
  0.3790653429325067  0.3759305706613095  0.5002664353570883
  0.6233954851427006  0.1259916792298048  0.4983183107476621
  0.3768107898887506  0.3755101230113590  0.6975940303804904
  0.6262495018912032  0.6266063120519790  0.6981491301556448
  0.6274325648969539  0.1260427107619642  0.6986707815305595
  0.5003912906380681  0.2512193386429195  0.0013535362472337
  0.7514730487349706  0.5020165800433904  0.9989275363067620
  0.7469467352917162  0.4995950592451586  0.1995925821149836
  0.5021707513460675  0.7461605549337083  0.3995016567291848
  0.7478397020584393  0.0021631265805189  0.8009697740928221
  0.0012839992973729  0.2461806108624874  0.7990724694327489
  0.9979546356071528  0.4992089241366847  0.0003744219585861
  0.7497514404011298  0.2527028045420112  0.2000498952298985
  0.9989882187833675  0.4982837042295724  0.3998651906368765
  0.2497178615092569  0.7497703286830747  0.3999963145248620
  0.7512709315674255  0.2502897426390476  0.4005952229382606
  0.0011346409997674  0.9977973405101417  0.6003217193280290
  0.7491565770385329  0.7528463948790745  0.5982243952282261
  0.4995608197659500  0.9989961174085502  0.5992072219303962
  0.9991351383015187  0.0012797428979825  0.7996930838033173
  0.2531703906341500  0.2474232252044843  0.7992380324003115
  0.1228309429969193  0.8724374231149984  0.0988117583024044
  0.3766665341274567  0.6242860490846046  0.3001413244937512
  0.1272783773281690  0.3751040271852132  0.5004788758423623
  0.6221841475287776  0.8745974080054516  0.4992937471587007
  0.6238663937854216  0.8759902624403034  0.7000285620585490
  0.6248246203266634  0.8760354823885004  0.9001480367939455
  0.3730453116584251  0.8746196861723591  0.0995944880416330
  0.8769007071227479  0.8735202155996430  0.5013932510635768
  0.8780371338148114  0.3753896163525708  0.5008892323850214
  0.3790499642310308  0.8734923595460196  0.8995476780240639
  0.1258434209665590  0.1236779760980815  0.9008959545966769
  0.8751717189391331  0.8769902178434114  0.9000769141126183
  0.8714793092336798  0.3784661990653815  0.8976579747412385
  0.7499781909298986  0.0020405291184058  0.0001093883139230
  0.4994513101619260  0.7466872815437523  0.2002509024115683
  0.9976772672520261  0.7500417375290260  0.1993913010745367
  0.7522268906033805  0.9997175356825118  0.1992606772997773
  0.5014254183655789  0.2500234550581987  0.3984107380044556
  0.2477575162001750  0.0006317037659231  0.6005256569533192
  0.5012885444142167  0.2510640983440366  0.5999693361853554
  0.2573339460083799  0.4972298303894642  0.7994835532883893
  0.4981472529486840  0.2533774997519087  0.7995296415982582
